data/results/2026_03_23_15_57_04_set_exp_3_exp_3_n007_c001_g004_max.sol
# Objective value = 14
c_n1n2n3n6 4
c_n2n3n6 2
c_n1n3n6 3
c_n1n2n6 3
c_n1n2n3 2
y_n0n1 0
y_n1n2 1
y_n0n2 0
y_n1n3 0
y_n0n3 0
y_n1n4 0
y_n0n4 0
y_n1n5 0
y_n0n5 0
y_n1n6 0
y_n0n6 0
y_n2n3 0
y_n2n4 0
y_n2n5 0
y_n2n6 0
y_n3n4 0
y_n3n5 0
y_n3n6 1
y_n4n5 1
y_n4n6 1
y_n5n6 1
pos_n0 6
pos_n1 4
pos_n2 5
pos_n3 2
pos_n4 0
pos_n5 1
pos_n6 3
z_n2n3 0
z_n2n6 0
z_n3n6 1
z_n1n6 1
z_n1n3 0
z_n5n6 0
z_n1n5 0
z_n2n5 0
z_n1n2 1
z_n0n5 0
z_n3n4 0
